nodes = 30;
edges = 66;
starts = [1, 2, 3, 3, 4, 5, 5, 6, 7, 8, 9, 9, 10, 11, 11, 13, 13, 14, 15, 16, 16, 17, 18, 19, 20, 22, 22, 24, 25, 26, 27, 28, 29, 2, 3, 4, 10, 5, 6, 12, 7, 14, 9, 10, 17, 11, 12, 19, 14, 21, 15, 23, 17, 24, 18, 19, 20, 28, 23, 30, 25, 26, 27, 28, 29, 30];
ends = [2, 3, 4, 10, 5, 6, 12, 7, 14, 9, 10, 17, 11, 12, 19, 14, 21, 15, 23, 17, 24, 18, 19, 20, 28, 23, 30, 25, 26, 27, 28, 29, 30, 1, 2, 3, 3, 4, 5, 5, 6, 7, 8, 9, 9, 10, 11, 11, 13, 13, 14, 15, 16, 16, 17, 18, 19, 20, 22, 22, 24, 25, 26, 27, 28, 29];
weights = [14, 17, 13, 8, 18, 18, 15, 2, 3, 14, 4, 16, 3, 13, 3, 2, 4, 16, 7, 16, 13, 1, 1, 6, 2, 9, 4, 13, 12, 14, 3, 12, 19, 14, 17, 13, 8, 18, 18, 15, 2, 3, 14, 4, 16, 3, 13, 3, 2, 4, 16, 7, 16, 13, 1, 1, 6, 2, 9, 4, 13, 12, 14, 3, 12, 19];
start = 1;
end= 30;
tasks = 2;
task = array2d(1..tasks, 1..nodes, [0, 1, 0, 0, 0, 0, 0, 0, 0, 0, 0, 0, 0, 0, 0, 0, 0, 0, 0, 0, 0, 0, 0, 0, 0, 0, 0, 0, 0, 0, 0, 0, 0, 0, 0, 0, 0, 0, 0, 0, 0, 0, 0, 0, 0, 0, 0, 0, 0, 0, 0, 0, 0, 0, 0, 0, 0, 0, 1, 0]);
